(set-logic ALL)
(declare-fun var0 () String)
(assert (str.in_re var0 (re.++ (re.union (re.+ (str.to_re "000")) (re.+ (str.to_re "111"))) (re.++ (re.+ (re.* (str.to_re "222"))) (re.++ (re.+ (re.* (str.to_re "3"))) (re.++ (re.* (re.+ (str.to_re "4"))) (re.++ (re.+ (re.* (str.to_re "5"))) (re.++ (re.union (re.+ (str.to_re "6")) (re.union (str.to_re "7") (str.to_re "888"))) (re.++ (re.union (re.union (str.to_re "9") (str.to_re "a")) (re.* (str.to_re "bb"))) (re.++ (re.* (re.union (str.to_re "c") (str.to_re "dd"))) (re.++ (re.+ (re.* (str.to_re "ee"))) (re.++ (re.* (re.+ (str.to_re "f"))) (re.++ (re.+ (re.+ (str.to_re "ggg"))) (re.++ (re.+ (re.* (str.to_re "h"))) (re.++ (re.+ (re.union (str.to_re "iii") (str.to_re "j"))) (re.++ (re.+ (re.union (str.to_re "k") (str.to_re "l"))) (re.++ (re.* (re.* (str.to_re "mm"))) (re.+ (re.* (str.to_re "nn"))))))))))))))))))))
(assert (not (str.in_re var0 (re.++ (re.union (re.+ (str.to_re "000")) (re.* (str.to_re "11"))) (re.++ (re.+ (re.union (str.to_re "22") (str.to_re "33"))) (re.++ (re.+ (re.union (str.to_re "444") (str.to_re "555"))) (re.++ (re.+ (re.+ (str.to_re "66"))) (re.++ (re.* (re.+ (str.to_re "7"))) (re.++ (re.+ (re.union (str.to_re "88") (str.to_re "99"))) (re.++ (re.+ (re.+ (str.to_re "a"))) (re.++ (re.union (re.+ (str.to_re "b")) (re.+ (str.to_re "ccc"))) (re.++ (re.+ (re.union (str.to_re "dd") (str.to_re "eee"))) (re.++ (re.+ (re.+ (str.to_re "fff"))) (re.++ (re.union (re.* (str.to_re "ggg")) (re.union (str.to_re "hhh") (str.to_re "i"))) (re.++ (re.union (re.+ (str.to_re "jj")) (re.* (str.to_re "k"))) (re.++ (re.union (re.union (str.to_re "l") (str.to_re "m")) (re.union (str.to_re "nn") (str.to_re "o"))) (re.++ (re.union (re.* (str.to_re "ppp")) (re.+ (str.to_re "qqq"))) (re.++ (re.* (re.* (str.to_re "rrr"))) (re.union (re.* (str.to_re "ss")) (re.* (str.to_re "t")))))))))))))))))))))
(check-sat)